number_of_interviews = 3;
number_of_students   = 37;
number_of_companies  = 15;
number_of_suites =12;
number_of_slots =20;
cost_of_suite=200;

company_name = [ "AIMMS", "SAS", "Keelvar", "Microsoft", "Google", "IBM",
                 "Cadence", "Siemens", "Cosling", "COSYTEC", "LocalSolver",
                 "N-side", "UTRC-I", "Zoomer", "Quintiq" ];

disappointment_cost = [10,10,10,10,20,10,5,10,10,5,5,5,5,5,5];

min_assignment  = [5,5,3,10,10,10,5,10,10,3,3,3,3,5,5];

max_assignment  = [10,10,6,20,20,20,10,20,20,6,6,6,6,10,10];

daily_rate=[20,20,10,30,30,30,10,10,25,5,5,5,5,10,10];

preference   = [|3,4,1,1,1,1,2,2,2,4,4,2,2,3,2
                |2,4,4,1,1,3,1,1,1,2,1,1,1,5,1
                |3,4,3,5,5,5,3,3,4,3,4,4,3,3,3
                |5,2,3,1,1,1,4,4,2,4,4,4,2,3,2
                |2,2,1,5,2,3,4,4,5,4,2,2,3,5,5
                |3,4,3,2,2,1,3,3,4,4,4,2,3,3,3
                |4,3,4,2,2,2,3,4,3,3,3,2,3,4,3
                |5,5,2,1,1,1,5,5,3,5,5,5,5,2,5
                |5,5,5,1,1,1,5,5,5,5,5,5,5,5,5
                |5,3,5,1,1,1,5,5,3,5,5,2,5,3,5
                |4,2,4,4,2,2,3,4,2,3,3,4,3,2,3
                |5,5,5,3,3,3,3,5,3,5,5,5,5,5,5
                |5,5,5,1,1,3,5,5,5,5,5,5,5,5,5
                |4,4,4,4,2,2,3,4,4,4,4,4,3,3,4
                |2,2,2,1,1,1,2,2,2,2,1,2,2,2,2
                |5,5,5,5,5,5,5,5,5,5,5,5,5,5,5
                |5,5,5,5,4,4,5,5,3,5,4,5,5,3,4
                |2,2,4,5,5,5,2,2,5,2,1,3,3,2,2
                |2,3,1,3,2,2,4,1,2,1,2,1,1,2,4
                |5,4,3,3,3,3,5,5,4,5,3,4,5,3,5
                |5,5,5,2,1,2,5,5,3,3,5,5,5,5,5
                |4,2,3,3,2,4,4,3,4,5,4,4,4,3,4
                |3,3,3,2,1,2,5,3,5,3,2,3,1,5,4
                |3,4,3,4,4,4,3,3,4,3,3,4,4,5,3
                |2,2,2,3,4,2,5,2,2,4,4,1,1,2,4
                |2,3,2,5,1,1,5,5,4,2,2,5,4,2,4
                |3,3,4,1,1,2,3,4,2,3,3,2,3,2,4
                |2,2,2,1,1,2,1,3,3,2,1,1,1,1,2
                |5,4,1,5,3,5,5,5,5,5,5,5,5,1,5
                |5,2,5,1,1,1,5,5,2,5,2,3,5,3,5
                |2,5,5,3,3,1,5,5,5,5,5,2,5,5,1
                |5,5,5,5,5,5,5,5,5,5,5,5,5,5,5
                |4,1,2,2,1,1,3,2,1,3,3,1,4,2,3
                |1,3,2,1,2,4,3,2,5,5,4,3,5,4,1
                |3,2,2,5,4,2,3,2,5,3,1,2,3,4,2
                |5,1,3,2,3,4,3,5,1,4,5,5,5,3,3
                |1,3,3,3,4,4,1,5,3,2,2,1,2,1,2|];


allowed_slots = [{2, 9, 10, 16, 18},
                 {1, 3, 4, 9, 15},
                 {7, 9, 14, 18, 19},
                 {4, 5, 6, 7, 19},
                 {4, 6, 7, 8, 15},  
                 {4, 6, 9, 15, 16},
                 {5, 7, 8, 11, 12},
                 {6, 10, 12, 15, 17},
                 {4, 6, 8, 15, 16},
{ 1, 6, 7, 15, 20},
{ 8, 10, 12, 15, 19},
{ 5, 6, 13, 14, 16},
{ 1, 7, 12, 16, 19},
{ 5, 6, 12, 15, 17},
{ 3, 5, 7, 10, 20},
{ 8, 9, 12, 13, 16},
{ 10, 11, 15, 17, 18},
{ 3, 4, 9, 14, 18},
{ 5, 7, 8, 17, 18},
{ 4, 5, 9, 10, 20},
{ 8, 13, 15, 17, 18},
{ 6, 7, 8, 13, 17},
{ 3, 13, 14, 15, 20},
{ 2, 12, 13, 17, 18},
{ 6, 9, 11, 14, 16},
{ 4, 7, 9, 13, 16},
{ 2, 5, 7, 13, 19},
{ 1, 9, 15, 17, 20},
{ 1, 2, 11, 17, 18},
{ 1, 10, 15, 16, 19},
{ 1, 4, 10, 11, 18},
{ 8, 12, 13, 17, 19},
{ 1, 4, 8, 9, 18},
{ 2, 5, 6, 10, 12},
{ 6, 10, 16, 17, 19},
{ 1, 7, 9, 16, 20},
{ 2, 12, 14, 16, 20}];
